certificates/rado_a13_c283_N30.cnf
c Rad2 upper bound instance: x1 + 13*x2 - x3 = 283, interval [1,30]
p cnf 30 138
1 4 22 0
-1 -4 -22 0
1 17 23 0
-1 -17 -23 0
1 24 30 0
-1 -24 -30 0
2 5 22 0
-2 -5 -22 0
2 18 23 0
-2 -18 -23 0
3 6 22 0
-3 -6 -22 0
3 19 23 0
-3 -19 -23 0
4 7 22 0
-4 -7 -22 0
4 20 23 0
-4 -20 -23 0
5 8 22 0
-5 -8 -22 0
5 21 23 0
-5 -21 -23 0
6 9 22 0
-6 -9 -22 0
6 22 23 0
-6 -22 -23 0
7 10 22 0
-7 -10 -22 0
7 23 0
-7 -23 0
8 11 22 0
-8 -11 -22 0
8 23 24 0
-8 -23 -24 0
9 12 22 0
-9 -12 -22 0
9 23 25 0
-9 -23 -25 0
10 13 22 0
-10 -13 -22 0
10 23 26 0
-10 -23 -26 0
1 11 21 0
-1 -11 -21 0
11 14 22 0
-11 -14 -22 0
11 23 27 0
-11 -23 -27 0
2 12 21 0
-2 -12 -21 0
12 15 22 0
-12 -15 -22 0
12 23 28 0
-12 -23 -28 0
3 13 21 0
-3 -13 -21 0
13 16 22 0
-13 -16 -22 0
13 23 29 0
-13 -23 -29 0
4 14 21 0
-4 -14 -21 0
14 17 22 0
-14 -17 -22 0
14 23 30 0
-14 -23 -30 0
5 15 21 0
-5 -15 -21 0
15 18 22 0
-15 -18 -22 0
6 16 21 0
-6 -16 -21 0
16 19 22 0
-16 -19 -22 0
7 17 21 0
-7 -17 -21 0
17 20 22 0
-17 -20 -22 0
8 18 21 0
-8 -18 -21 0
18 21 22 0
-18 -21 -22 0
9 19 21 0
-9 -19 -21 0
19 22 0
-19 -22 0
10 20 21 0
-10 -20 -21 0
20 22 23 0
-20 -22 -23 0
11 21 0
-11 -21 0
21 22 24 0
-21 -22 -24 0
12 21 22 0
-12 -21 -22 0
22 25 0
-22 -25 0
13 21 23 0
-13 -21 -23 0
22 23 26 0
-22 -23 -26 0
1 20 24 0
-1 -20 -24 0
14 21 24 0
-14 -21 -24 0
22 24 27 0
-22 -24 -27 0
2 20 25 0
-2 -20 -25 0
15 21 25 0
-15 -21 -25 0
22 25 28 0
-22 -25 -28 0
3 20 26 0
-3 -20 -26 0
16 21 26 0
-16 -21 -26 0
22 26 29 0
-22 -26 -29 0
4 20 27 0
-4 -20 -27 0
17 21 27 0
-17 -21 -27 0
22 27 30 0
-22 -27 -30 0
5 20 28 0
-5 -20 -28 0
18 21 28 0
-18 -21 -28 0
6 20 29 0
-6 -20 -29 0
19 21 29 0
-19 -21 -29 0
7 20 30 0
-7 -20 -30 0
20 21 30 0
-20 -21 -30 0
