certificates/rado_a13_c283_N30.drat
-27 -29 -30 0
23 -30 0
-22 27 -23 0
-29 -30 0
d -27 -29 -30 0
22 -30 0
-30 0
-23 0
7 0
14 0
22 0
-19 0
-25 0
-4 0
-10 0
-11 0
-17 0
3 0
9 0
20 0
26 0
27 0
21 0
1 0
-6 0
-13 0
0
